0 38 46
1 40 52
2 43 56
3 53 55
4 53 54
5 54 56
6 49 56
7 55 55
8 44 55
9 29 52
10 36 51
11 23 47
12 45 46
13 44 44
14 35 39
15 38 42
16 37 39
17 33 36
18 33 39
19 32 38
20 18 34
21 24 31
22 27 30
23 29 30
24 32 32
25 22 30
26 30 32
27 8 28
28 21 24
29 22 24
30 19 23
31 11 22
32 18 19
33 11 16
34 11 13
35 11 13
36 13 14
37 9 13
38 9 10
39 4 5
40 5 6
41 4 5
42 5 5
43 3 4
44 3 3
45 1 1
46 1 1
47 1 1

